Minimize
  - 6 y_0 - 16 y_1 - 20 y_2 - 14 y_3 - 14 y_4 - 12 y_5 - 21 y_6 - 18 y_7
   - 19 y_8 - 21 y_9 - 7 y_10 - 20 y_11 - 16 y_12 - 4 y_13 - 15 y_14
   - 12 y_15 - 21 y_16 - 17 y_17 - 13 y_18 - 7 y_19 - 21 y_20 - 17 y_21
   - 18 y_22 - 6 y_23 - 18 y_24 - 16 y_25 - 7 y_26 - 19 y_27 - 6 y_28
   - 7 y_29 - 18 y_30 - 16 y_31 - 12 y_33 - 12 y_34 - 17 y_35 - 6 y_36
   - 16 y_37 - 4 y_38 - 16 y_39 - 9 y_40 - 16 y_41 - 12 y_42 - 19 y_43
   - 22 y_44 - 18 y_45 - 14 y_46 - 7 y_47 - 16 y_48 - 11 y_49
   + 689 Constant
Subject To
 c_0: y_33 = 1
 c_1_0: y_0 + y_19 + y_26 + y_29 + y_36 + y_38 + y_47 >= 1
 c_1_1: y_1 + y_3 + y_8 + y_22 + y_25 + y_39 + y_45 + y_46 >= 1
 c_1_2: y_2 + y_24 + y_35 + y_43 + y_48 >= 1
 c_1_3: y_1 + y_3 + y_5 + y_25 + y_33 + y_39 + y_42 + y_46 + y_49 >= 1
 c_1_4: y_4 + y_7 + y_37 + y_41 >= 1
 c_1_5: y_3 + y_5 + y_31 + y_46 + y_49 >= 1
 c_1_6: y_6 + y_9 + y_11 + y_16 + y_20 + y_30 + y_44 >= 1
 c_1_7: y_4 + y_7 + y_37 + y_41 >= 1
 c_1_8: y_1 + y_8 + y_25 + y_27 + y_45 >= 1
 c_1_9: y_6 + y_9 + y_11 + y_16 + y_20 + y_22 + y_30 + y_44 >= 1
 c_1_10: y_10 + y_13 + y_23 + y_28 + y_40 >= 1
 c_1_11: y_6 + y_9 + y_11 + y_16 + y_20 + y_22 + y_30 + y_44 >= 1
 c_1_12: y_12 + y_22 + y_24 + y_30 + y_31 + y_35 + y_39 >= 1
 c_1_13: y_10 + y_13 + y_23 + y_28 + y_29 + y_38 >= 1
 c_1_14: y_14 + y_15 + y_17 + y_21 + y_25 + y_34 >= 1
 c_1_15: y_14 + y_15 + y_34 + y_40 + y_42 >= 1
 c_1_16: y_6 + y_9 + y_11 + y_16 + y_20 + y_24 + y_30 + y_44 >= 1
 c_1_17: y_14 + y_17 + y_21 + y_25 + y_27 >= 1
 c_1_18: y_18 + y_37 + y_48 >= 1
 c_1_19: y_0 + y_19 + y_36 + y_38 + y_47 >= 1
 c_1_20: y_6 + y_9 + y_11 + y_16 + y_20 + y_30 + y_44 >= 1
 c_1_21: y_14 + y_17 + y_21 + y_27 >= 1
 c_1_22: y_1 + y_9 + y_11 + y_12 + y_22 + y_30 + y_31 + y_39 + y_45 >= 1
 c_1_23: y_10 + y_13 + y_23 + y_28 + y_29 + y_40 >= 1
 c_1_24: y_2 + y_12 + y_16 + y_24 + y_30 + y_31 + y_35 + y_43 + y_48 >= 1
 c_1_25: y_1 + y_3 + y_8 + y_14 + y_17 + y_25 + y_27 + y_33 + y_39 + y_42
   + y_45 >= 1
 c_1_26: y_0 + y_26 + y_29 + y_38 + y_47 >= 1
 c_1_27: y_8 + y_17 + y_21 + y_25 + y_27 + y_45 >= 1
 c_1_28: y_10 + y_13 + y_23 + y_28 + y_40 >= 1
 c_1_29: y_0 + y_13 + y_23 + y_26 + y_29 + y_38 >= 1
 c_1_30: y_6 + y_9 + y_11 + y_12 + y_16 + y_20 + y_22 + y_24 + y_30 + y_31
   + y_35 + y_39 >= 1
 c_1_31: y_5 + y_12 + y_22 + y_24 + y_30 + y_31 + y_35 + y_39 + y_46 >= 1
 c_1_32: y_32 >= 1
 c_1_33: y_3 + y_25 + y_33 + y_39 + y_42 + y_46 + y_49 >= 1
 c_1_34: y_14 + y_15 + y_34 + y_40 + y_42 >= 1
 c_1_35: y_2 + y_12 + y_24 + y_30 + y_31 + y_35 + y_43 + y_48 >= 1
 c_1_36: y_0 + y_19 + y_36 + y_38 + y_47 >= 1
 c_1_37: y_4 + y_7 + y_18 + y_37 + y_41 + y_48 >= 1
 c_1_38: y_0 + y_13 + y_19 + y_26 + y_29 + y_36 + y_38 + y_47 >= 1
 c_1_39: y_1 + y_3 + y_12 + y_22 + y_25 + y_30 + y_31 + y_33 + y_39 + y_45
   + y_46 >= 1
 c_1_40: y_10 + y_15 + y_23 + y_28 + y_34 + y_40 >= 1
 c_1_41: y_4 + y_7 + y_37 + y_41 >= 1
 c_1_42: y_3 + y_15 + y_25 + y_33 + y_34 + y_42 >= 1
 c_1_43: y_2 + y_24 + y_35 + y_43 + y_48 >= 1
 c_1_44: y_6 + y_9 + y_11 + y_16 + y_20 + y_44 >= 1
 c_1_45: y_1 + y_8 + y_22 + y_25 + y_27 + y_39 + y_45 >= 1
 c_1_46: y_1 + y_3 + y_5 + y_31 + y_33 + y_39 + y_46 + y_49 >= 1
 c_1_47: y_0 + y_19 + y_26 + y_36 + y_38 + y_47 >= 1
 c_1_48: y_2 + y_18 + y_24 + y_35 + y_37 + y_43 + y_48 >= 1
 c_1_49: y_3 + y_5 + y_33 + y_46 + y_49 >= 1
Bounds
 Constant = 1
Binaries
 y_0 y_1 y_2 y_3 y_4 y_5 y_6 y_7 y_8 y_9 y_10 y_11 y_12 y_13 y_14 y_15 y_16
 y_17 y_18 y_19 y_20 y_21 y_22 y_23 y_24 y_25 y_26 y_27 y_28 y_29 y_30 y_31
 y_32 y_33 y_34 y_35 y_36 y_37 y_38 y_39 y_40 y_41 y_42 y_43 y_44 y_45 y_46
 y_47 y_48 y_49
End
